(declare-const x String)
(declare-const y String)
(assert (str.in.re x (re.* (re.union (str.to.re """f") (re.union (str.to.re "Yl%c") (str.to.re "123"))))))
(assert (= 5 (str.len x)))
(check-sat)
(get-model)
